Test: hole014_shuffled.cnf
Options: -no-inverting-opt -activity-look-freq=1
WARNING: for repeatability, setting FPU to use double precision
============================[ Problem Statistics ]=============================
|                                                                             |
|  Number of symmetries:           27                                         |
|  Number of invertingSyms:         0                                         |
|  Number of variables:           210                                         |
|  Number of clauses:            1485                                         |
|  Parse time:                   0.00 s                                       |
|                                                                             |
============================[ Search Statistics ]==============================
| Conflicts |          ORIGINAL         |          LEARNT          | Progress |
|           |    Vars  Clauses Literals |    Limit  Clauses Lit/Cl |          |
===============================================================================
|       100 |     210     1485     3150 |      544      104     92 |  0.002 % |
|       250 |     210     1485     3150 |      598      275     81 |  0.002 % |
|       475 |     210     1485     3150 |      658      641     75 |  0.002 % |
|       812 |     210     1485     3150 |      724      592     62 |  0.002 % |
|      1318 |     210     1485     3150 |      797      611     56 |  0.002 % |
|      2077 |     210     1485     3150 |      876      829     46 |  0.002 % |
|      3216 |     210     1485     3150 |      964      564     61 |  0.002 % |
|      4924 |     210     1485     3150 |     1061      651     67 |  0.002 % |
|      7486 |     210     1485     3150 |     1167      708     65 |  0.002 % |
|     11330 |     210     1485     3150 |     1283     1065     76 |  0.002 % |
|     17096 |     210     1485     3150 |     1412     1123     70 |  0.002 % |
|     25745 |     210     1485     3150 |     1553     1345     61 |  0.002 % |
|     38719 |     210     1485     3150 |     1708     1419     69 |  0.002 % |
|     58180 |     210     1485     3150 |     1879      967     76 |  0.002 % |
|     87372 |     210     1485     3150 |     2067     1171     66 |  0.002 % |
|    131161 |     210     1485     3150 |     2274     2051     54 |  0.002 % |
|    196845 |     210     1485     3150 |     2501     2176     75 |  0.002 % |
|    295371 |     210     1485     3150 |     2752     1531     67 |  0.002 % |
|    443160 |     210     1485     3150 |     3027     1568     64 |  0.002 % |
===============================================================================
restarts              : 1023
conflicts             : 500193         (18405 /sec)
symconflicts          : 81082          (2983 /sec)
decisions             : 927090         (0.00 % random) (34112 /sec)
propagations          : 29525637       (1086392 /sec)
sympropagations       : 399482         (14699 /sec)
conflict literals     : 38791763       (5.35 % deleted)
literals     : 38791763       (5.35 % deleted)

HEURISTIC USAGES
random                : 0           
activity w/ lookahead : 927090      
activity no lookahead : 0           
original sp           : 0           
sym count             : 0           

Memory used           : 6.00 MB
CPU time              : 27.1777 s

UNSATISFIABLE
